
Gurobi 9.0.1 (linux64) logging started Thu Apr 30 23:00:57 2020

Gurobi Optimizer version 9.0.1 build v9.0.1rc0 (linux64)
Optimize a model with 32222 rows, 27380 columns and 603960 nonzeros
Model fingerprint: 0xd1290b92
Variable types: 0 continuous, 27380 integer (27342 binary)
Coefficient statistics:
  Matrix range     [1e+00, 2e+01]
  Objective range  [2e+00, 1e+02]
  Bounds range     [1e+00, 1e+00]
  RHS range        [1e+00, 1e+00]

User MIP start produced solution with objective 1132 (0.91s)
Loaded user MIP start with objective 1132

Presolve removed 14186 rows and 9384 columns (presolve time = 5s) ...
Presolve removed 14228 rows and 9444 columns (presolve time = 11s) ...
Presolve removed 14228 rows and 9444 columns
Presolve time: 10.70s
Presolved: 17994 rows, 17936 columns, 501120 nonzeros
Variable types: 0 continuous, 17936 integer (17900 binary)

Root simplex log...

Iteration    Objective       Primal Inf.    Dual Inf.      Time
       0    0.0000000e+00   1.940000e+02   0.000000e+00     13s
    1955    5.2705563e+02   9.803083e+03   0.000000e+00     15s
    3698    5.3077786e+02   1.635723e+04   0.000000e+00     20s
    5192    5.4099887e+02   3.754602e+04   0.000000e+00     25s
    6271    5.4472398e+02   2.411744e+04   0.000000e+00     30s
    7433    5.4702046e+02   1.150706e+04   0.000000e+00     35s
    9094    5.4871488e+02   3.422247e+03   0.000000e+00     40s
   10339    5.5069425e+02   6.686668e+03   0.000000e+00     45s
   11418    5.5206239e+02   4.107167e+03   0.000000e+00     50s
   12497    5.5376103e+02   4.323718e+03   0.000000e+00     55s
   13576    5.5504184e+02   1.455832e+04   0.000000e+00     60s
   14572    5.5602426e+02   9.428607e+03   0.000000e+00     65s
   15402    5.5716926e+02   3.003070e+03   0.000000e+00     70s
   16315    5.5800122e+02   2.242067e+03   0.000000e+00     75s
   17145    5.5875128e+02   3.196937e+03   0.000000e+00     80s
   18058    5.5926437e+02   1.303810e+03   0.000000e+00     85s
   19054    5.5977406e+02   7.250603e+03   0.000000e+00     90s
   19884    5.6022212e+02   1.410862e+03   0.000000e+00     95s
   20714    5.6066684e+02   1.970902e+03   0.000000e+00    100s
   21458    5.6156939e+02   3.540680e+02   0.000000e+00    105s
   22205    5.6215157e+02   5.074249e+03   0.000000e+00    110s
   23118    5.6266894e+02   2.760352e+02   0.000000e+00    116s
   23782    5.6301633e+02   5.792073e+02   0.000000e+00    121s
   24529    5.6337164e+02   7.650454e+02   0.000000e+00    126s
   25193    5.6358445e+02   5.918934e+01   0.000000e+00    130s
Warning: Markowitz tolerance tightened to 0.125
   26017    5.6396864e+02   8.820804e+01   0.000000e+00    136s
   26675    5.6413600e+02   1.003150e+00   0.000000e+00    140s
   26747    5.6413760e+02   0.000000e+00   0.000000e+00    141s

Root relaxation: objective 5.641376e+02, 26747 iterations, 129.29 seconds

    Nodes    |    Current Node    |     Objective Bounds      |     Work
 Expl Unexpl |  Obj  Depth IntInf | Incumbent    BestBd   Gap | It/Node Time

     0     0  564.13760    0 2495 1132.00000  564.13760  50.2%     -  149s
     0     0  599.38911    0 2479 1132.00000  599.38911  47.1%     -  261s
     0     0  604.31935    0 2518 1132.00000  604.31935  46.6%     -  318s
     0     0  604.83493    0 2506 1132.00000  604.83493  46.6%     -  339s
     0     0  604.90237    0 2539 1132.00000  604.90237  46.6%     -  347s
     0     0  604.92550    0 2528 1132.00000  604.92550  46.6%     -  353s
     0     0  604.93076    0 2505 1132.00000  604.93076  46.6%     -  356s
     0     0  604.93076    0 2506 1132.00000  604.93076  46.6%     -  358s
     0     0  618.72985    0 2543 1132.00000  618.72985  45.3%     -  482s
     0     0  619.15396    0 2506 1132.00000  619.15396  45.3%     -  509s
     0     0  619.32254    0 2518 1132.00000  619.32254  45.3%     -  522s
     0     0  619.36180    0 2509 1132.00000  619.36180  45.3%     -  527s
     0     0  619.36616    0 2514 1132.00000  619.36616  45.3%     -  530s
     0     0  625.76843    0 2607 1132.00000  625.76843  44.7%     -  686s
     0     0  626.54469    0 2572 1132.00000  626.54469  44.7%     -  731s
     0     0  626.68175    0 2590 1132.00000  626.68175  44.6%     -  745s
     0     0  626.69837    0 2577 1132.00000  626.69837  44.6%     -  751s
     0     0  626.70811    0 2585 1132.00000  626.70811  44.6%     -  756s
     0     0  629.18989    0 2621 1132.00000  629.18989  44.4%     -  885s
     0     0  629.56132    0 2610 1132.00000  629.56132  44.4%     -  935s
     0     0  629.99238    0 2645 1132.00000  629.99238  44.3%     -  960s
     0     0  630.01480    0 2637 1132.00000  630.01480  44.3%     -  967s
     0     0  630.02016    0 2649 1132.00000  630.02016  44.3%     -  971s
     0     0  631.77369    0 2641 1132.00000  631.77369  44.2%     - 1062s
     0     0  631.88857    0 2635 1132.00000  631.88857  44.2%     - 1100s
     0     0  631.90639    0 2642 1132.00000  631.90639  44.2%     - 1106s
     0     0  631.91166    0 2636 1132.00000  631.91166  44.2%     - 1110s
     0     0  632.61469    0 2646 1132.00000  632.61469  44.1%     - 1158s
     0     0  632.68095    0 2643 1132.00000  632.68095  44.1%     - 1204s
     0     0  632.69743    0 2644 1132.00000  632.69743  44.1%     - 1211s
     0     0  633.16332    0 2651 1132.00000  633.16332  44.1%     - 1242s
     0     0  633.33153    0 2615 1132.00000  633.33153  44.1%     - 1267s
     0     0  633.35041    0 2622 1132.00000  633.35041  44.1%     - 1274s
     0     0  633.37217    0 2643 1132.00000  633.37217  44.0%     - 1283s
     0     0  633.37615    0 2644 1132.00000  633.37615  44.0%     - 1286s
     0     0  634.17110    0 2633 1132.00000  634.17110  44.0%     - 1331s
     0     0  634.31403    0 2627 1132.00000  634.31403  44.0%     - 1352s
     0     0  634.36164    0 2636 1132.00000  634.36164  44.0%     - 1363s
     0     0  634.37045    0 2646 1132.00000  634.37045  44.0%     - 1367s
     0     0  635.04119    0 2651 1132.00000  635.04119  43.9%     - 1417s
     0     0  635.20547    0 2671 1132.00000  635.20547  43.9%     - 1444s
     0     0  635.23918    0 2684 1132.00000  635.23918  43.9%     - 1454s
     0     0  635.25234    0 2671 1132.00000  635.25234  43.9%     - 1460s
     0     0  635.60525    0 2665 1132.00000  635.60525  43.9%     - 1499s
     0     0  635.63893    0 2671 1132.00000  635.63893  43.8%     - 1561s
     0     0  635.64662    0 2677 1132.00000  635.64662  43.8%     - 1565s
     0     0  635.92871    0 2672 1132.00000  635.92871  43.8%     - 1602s
     0     0  635.97262    0 2668 1132.00000  635.97262  43.8%     - 1617s
     0     0  635.97809    0 2668 1132.00000  635.97809  43.8%     - 1622s
     0     0  636.32515    0 2684 1132.00000  636.32515  43.8%     - 1665s
     0     0  636.38694    0 2694 1132.00000  636.38694  43.8%     - 1682s
     0     0  636.39755    0 2691 1132.00000  636.39755  43.8%     - 1687s
     0     0  636.73349    0 2692 1132.00000  636.73349  43.8%     - 1728s
     0     0  636.79690    0 2692 1132.00000  636.79690  43.7%     - 1746s
     0     0  636.80707    0 2698 1132.00000  636.80707  43.7%     - 1752s
     0     0  636.88169    0 2702 1132.00000  636.88169  43.7%     - 1772s
     0     0  636.89702    0 2722 1132.00000  636.89702  43.7%     - 1782s
     0     0  636.94612    0 2713 1132.00000  636.94612  43.7%     - 1802s
     0     0  636.94612    0 2709 1132.00000  636.94612  43.7%     - 1826s
     0     2  636.95407    0 2704 1132.00000  636.95407  43.7%     - 2258s
     1     3  642.38231    1 2521 1132.00000  636.95407  43.7% 16298 2399s
     2     4  639.10054    1 2722 1132.00000  639.10054  43.5% 11645 2459s
     3     5  665.14756    2 2439 1132.00000  639.10054  43.5% 32245 3101s
     4     6  639.40349    2 2702 1132.00000  639.40349  43.5% 24732 3122s
     5     7  676.95062    3 2420 1132.00000  639.40349  43.5% 31319 3580s
     6     8  639.56138    3 2670 1132.00000  639.56138  43.5% 26358 3592s

Cutting planes:
  Cover: 3
  MIR: 118
  StrongCG: 16
  Zero half: 38
  Mod-K: 12
  RLT: 1158

Explored 7 nodes (308868 simplex iterations) in 3600.06 seconds
Thread count was 1 (of 40 available processors)

Solution count 1: 1132 

Time limit reached
Best objective 1.132000000000e+03, best bound 6.400000000000e+02, gap 43.4629%

User-callback calls 36735, time in user-callback 0.10 sec
